20J6M/DAT/20J6MNLL-14.dat
20 6
12.1431 12.1431
21.642 21.642
35.1087 35.1087
16.3572 16.3572
31.0628 31.0628
18.9022 18.9022
24.8573 24.8573
24.0505 24.0505
28.5217 28.5217
21.7211 21.7211
31.2838 31.2838
22.5488 22.5488
23.8405 23.8405
12.2451 12.2451
24.8879 24.8879
24.6968 24.6968
30.6784 30.6784
21.6262 21.6262
33.7697 33.7697
28.803 28.803
81.4578