20J6M/SOL/20J6MNLL-14.sol
solution status: optimal solution found
objective value:                              81.4578
x#1#5                                               1 	(obj:0)
x#2#5                                               1 	(obj:0)
x#3#6                                               1 	(obj:0)
x#4#3                                               1 	(obj:0)
x#5#6                                               1 	(obj:0)
x#6#5                                               1 	(obj:0)
x#7#4                                               1 	(obj:0)
x#8#1                               0.795014656659944 	(obj:0)
x#8#5                               0.204985343340056 	(obj:0)
x#9#4                                               1 	(obj:0)
x#10#3                                              1 	(obj:0)
x#11#2                                              1 	(obj:0)
x#12#1                              0.578327893280353 	(obj:0)
x#12#3                              0.421672106719647 	(obj:0)
x#13#5                                              1 	(obj:0)
x#14#3                                              1 	(obj:0)
x#15#1                              0.988428111652651 	(obj:0)
x#15#2                             0.0115718883473492 	(obj:0)
x#16#1                                              1 	(obj:0)
x#17#2                                              1 	(obj:0)
x#18#3                                              1 	(obj:0)
x#19#2                              0.568782073870955 	(obj:0)
x#19#6                              0.431217926129045 	(obj:0)
x#20#4                              0.974856785751484 	(obj:0)
x#20#6                             0.0251432142485158 	(obj:0)
z                                             81.4578 	(obj:1)
